c instance by G2
c solution = 1100001100110110110010110
c Known solution cost is 1307 
p cnf 25 30
w 36 84 31 73 13 32 20 1 49 33 40 91 79 73 70 88 94 26 90 65 66 81 53 19 0
22 -20 -2 0
-8 -15 -13 0
-18 -16 4 0
-11 -15 2 0
20 23 13 0
-8 -9 4 0
22 -11 -25 0
-14 -11 18 0
7 -14 20 0
-23 -18 11 0
19 16 -10 0
12 25 -16 0
13 -22 -1 0
16 -25 21 0
15 2 16 0
15 20 -11 0
10 12 -8 0
3 -7 -5 0
20 -4 -2 0
-14 -8 -19 0
22 21 9 0
-18 -3 13 0
24 13 -14 0
1 25 -23 0
8 19 4 0
8 7 -16 0
-23 22 -6 0
17 20 -12 0
-19 -18 13 0
-12 4 14 0
